c nIsolatedPIs 4
c maxPI 131
p cnf 755 1873
c gate 132 -88 -126 0
-88 -132 0
-126 -132 0
88 126 132 0
c gate 133 -86 126 0
-86 -133 0
126 -133 0
86 -126 133 0
c gate 134 125 -133 0
125 -134 0
-133 -134 0
-125 133 134 0
c gate 135 -132 134 0
-132 -135 0
134 -135 0
132 -134 135 0
c gate 136 -89 -126 0
-89 -136 0
-126 -136 0
89 126 136 0
c gate 137 -87 126 0
-87 -137 0
126 -137 0
87 -126 137 0
c gate 138 -136 -137 0
-136 -138 0
-137 -138 0
136 137 138 0
c gate 139 -125 138 0
-125 -139 0
138 -139 0
125 -138 139 0
c gate 140 128 -139 0
128 -140 0
-139 -140 0
-128 139 140 0
c gate 141 -135 140 0
-135 -141 0
140 -141 0
135 -140 141 0
c gate 142 -96 -126 0
-96 -142 0
-126 -142 0
96 126 142 0
c gate 143 -94 126 0
-94 -143 0
126 -143 0
94 -126 143 0
c gate 144 125 -143 0
125 -144 0
-143 -144 0
-125 143 144 0
c gate 145 -142 144 0
-142 -145 0
144 -145 0
142 -144 145 0
c gate 146 -97 -126 0
-97 -146 0
-126 -146 0
97 126 146 0
c gate 147 -95 126 0
-95 -147 0
126 -147 0
95 -126 147 0
c gate 148 -146 -147 0
-146 -148 0
-147 -148 0
146 147 148 0
c gate 149 -125 148 0
-125 -149 0
148 -149 0
125 -148 149 0
c gate 150 -128 -149 0
-128 -150 0
-149 -150 0
128 149 150 0
c gate 151 -145 150 0
-145 -151 0
150 -151 0
145 -150 151 0
c gate 152 -127 -151 0
-127 -152 0
-151 -152 0
127 151 152 0
c gate 153 -141 152 0
-141 -153 0
152 -153 0
141 -152 153 0
c gate 154 -92 -126 0
-92 -154 0
-126 -154 0
92 126 154 0
c gate 155 -90 126 0
-90 -155 0
126 -155 0
90 -126 155 0
c gate 156 125 -155 0
125 -156 0
-155 -156 0
-125 155 156 0
c gate 157 -154 156 0
-154 -157 0
156 -157 0
154 -156 157 0
c gate 158 -93 -126 0
-93 -158 0
-126 -158 0
93 126 158 0
c gate 159 -91 126 0
-91 -159 0
126 -159 0
91 -126 159 0
c gate 160 -158 -159 0
-158 -160 0
-159 -160 0
158 159 160 0
c gate 161 -125 160 0
-125 -161 0
160 -161 0
125 -160 161 0
c gate 162 -128 -161 0
-128 -162 0
-161 -162 0
128 161 162 0
c gate 163 -157 162 0
-157 -163 0
162 -163 0
157 -162 163 0
c gate 164 -83 126 0
-83 -164 0
126 -164 0
83 -126 164 0
c gate 165 -85 -126 0
-85 -165 0
-126 -165 0
85 126 165 0
c gate 166 -125 -165 0
-125 -166 0
-165 -166 0
125 165 166 0
c gate 167 -164 166 0
-164 -167 0
166 -167 0
164 -166 167 0
c gate 168 -82 126 0
-82 -168 0
126 -168 0
82 -126 168 0
c gate 169 -84 -126 0
-84 -169 0
-126 -169 0
84 126 169 0
c gate 170 125 -169 0
125 -170 0
-169 -170 0
-125 169 170 0
c gate 171 -168 170 0
-168 -171 0
170 -171 0
168 -170 171 0
c gate 172 128 -171 0
128 -172 0
-171 -172 0
-128 171 172 0
c gate 173 -167 172 0
-167 -173 0
172 -173 0
167 -172 173 0
c gate 174 127 -173 0
127 -174 0
-173 -174 0
-127 173 174 0
c gate 175 -163 174 0
-163 -175 0
174 -175 0
163 -174 175 0
c gate 176 -153 -175 0
-153 -176 0
-175 -176 0
153 175 176 0
c gate 177 130 -176 0
130 -177 0
-176 -177 0
-130 176 177 0
c gate 178 -118 -126 0
-118 -178 0
-126 -178 0
118 126 178 0
c gate 179 -116 126 0
-116 -179 0
126 -179 0
116 -126 179 0
c gate 180 125 -179 0
125 -180 0
-179 -180 0
-125 179 180 0
c gate 181 -178 180 0
-178 -181 0
180 -181 0
178 -180 181 0
c gate 182 -119 -126 0
-119 -182 0
-126 -182 0
119 126 182 0
c gate 183 -117 126 0
-117 -183 0
126 -183 0
117 -126 183 0
c gate 184 -182 -183 0
-182 -184 0
-183 -184 0
182 183 184 0
c gate 185 -125 184 0
-125 -185 0
184 -185 0
125 -184 185 0
c gate 186 128 -185 0
128 -186 0
-185 -186 0
-128 185 186 0
c gate 187 -181 186 0
-181 -187 0
186 -187 0
181 -186 187 0
c gate 188 -2 -126 0
-2 -188 0
-126 -188 0
2 126 188 0
c gate 189 -124 126 0
-124 -189 0
126 -189 0
124 -126 189 0
c gate 190 125 -189 0
125 -190 0
-189 -190 0
-125 189 190 0
c gate 191 -188 190 0
-188 -191 0
190 -191 0
188 -190 191 0
c gate 192 -3 -126 0
-3 -192 0
-126 -192 0
3 126 192 0
c gate 193 -1 126 0
-1 -193 0
126 -193 0
1 -126 193 0
c gate 194 -192 -193 0
-192 -194 0
-193 -194 0
192 193 194 0
c gate 195 -125 194 0
-125 -195 0
194 -195 0
125 -194 195 0
c gate 196 -128 -195 0
-128 -196 0
-195 -196 0
128 195 196 0
c gate 197 -191 196 0
-191 -197 0
196 -197 0
191 -196 197 0
c gate 198 -127 -197 0
-127 -198 0
-197 -198 0
127 197 198 0
c gate 199 -187 198 0
-187 -199 0
198 -199 0
187 -198 199 0
c gate 200 -122 -126 0
-122 -200 0
-126 -200 0
122 126 200 0
c gate 201 -120 126 0
-120 -201 0
126 -201 0
120 -126 201 0
c gate 202 125 -201 0
125 -202 0
-201 -202 0
-125 201 202 0
c gate 203 -200 202 0
-200 -203 0
202 -203 0
200 -202 203 0
c gate 204 -123 -126 0
-123 -204 0
-126 -204 0
123 126 204 0
c gate 205 -121 126 0
-121 -205 0
126 -205 0
121 -126 205 0
c gate 206 -204 -205 0
-204 -206 0
-205 -206 0
204 205 206 0
c gate 207 -125 206 0
-125 -207 0
206 -207 0
125 -206 207 0
c gate 208 -128 -207 0
-128 -208 0
-207 -208 0
128 207 208 0
c gate 209 -203 208 0
-203 -209 0
208 -209 0
203 -208 209 0
c gate 210 -113 126 0
-113 -210 0
126 -210 0
113 -126 210 0
c gate 211 -115 -126 0
-115 -211 0
-126 -211 0
115 126 211 0
c gate 212 -125 -211 0
-125 -212 0
-211 -212 0
125 211 212 0
c gate 213 -210 212 0
-210 -213 0
212 -213 0
210 -212 213 0
c gate 214 -112 126 0
-112 -214 0
126 -214 0
112 -126 214 0
c gate 215 -114 -126 0
-114 -215 0
-126 -215 0
114 126 215 0
c gate 216 125 -215 0
125 -216 0
-215 -216 0
-125 215 216 0
c gate 217 -214 216 0
-214 -217 0
216 -217 0
214 -216 217 0
c gate 218 128 -217 0
128 -218 0
-217 -218 0
-128 217 218 0
c gate 219 -213 218 0
-213 -219 0
218 -219 0
213 -218 219 0
c gate 220 127 -219 0
127 -220 0
-219 -220 0
-127 219 220 0
c gate 221 -209 220 0
-209 -221 0
220 -221 0
209 -220 221 0
c gate 222 -199 -221 0
-199 -222 0
-221 -222 0
199 221 222 0
c gate 223 -130 -222 0
-130 -223 0
-222 -223 0
130 222 223 0
c gate 224 129 -223 0
129 -224 0
-223 -224 0
-129 223 224 0
c gate 225 -177 224 0
-177 -225 0
224 -225 0
177 -224 225 0
c gate 226 -131 225 0
-131 -226 0
225 -226 0
131 -225 226 0
c gate 227 -45 126 0
-45 -227 0
126 -227 0
45 -126 227 0
c gate 228 -47 -126 0
-47 -228 0
-126 -228 0
47 126 228 0
c gate 229 125 -228 0
125 -229 0
-228 -229 0
-125 228 229 0
c gate 230 -227 229 0
-227 -230 0
229 -230 0
227 -229 230 0
c gate 231 -46 126 0
-46 -231 0
126 -231 0
46 -126 231 0
c gate 232 -48 -126 0
-48 -232 0
-126 -232 0
48 126 232 0
c gate 233 -125 -232 0
-125 -233 0
-232 -233 0
125 232 233 0
c gate 234 -231 233 0
-231 -234 0
233 -234 0
231 -233 234 0
c gate 235 -230 -234 0
-230 -235 0
-234 -235 0
230 234 235 0
c gate 236 128 235 0
128 -236 0
235 -236 0
-128 -235 236 0
c gate 237 -54 126 0
-54 -237 0
126 -237 0
54 -126 237 0
c gate 238 -56 -126 0
-56 -238 0
-126 -238 0
56 126 238 0
c gate 239 -125 -238 0
-125 -239 0
-238 -239 0
125 238 239 0
c gate 240 -237 239 0
-237 -240 0
239 -240 0
237 -239 240 0
c gate 241 -53 126 0
-53 -241 0
126 -241 0
53 -126 241 0
c gate 242 -55 -126 0
-55 -242 0
-126 -242 0
55 126 242 0
c gate 243 125 -242 0
125 -243 0
-242 -243 0
-125 242 243 0
c gate 244 -241 243 0
-241 -244 0
243 -244 0
241 -243 244 0
c gate 245 -128 -244 0
-128 -245 0
-244 -245 0
128 244 245 0
c gate 246 -240 245 0
-240 -246 0
245 -246 0
240 -245 246 0
c gate 247 -127 -246 0
-127 -247 0
-246 -247 0
127 246 247 0
c gate 248 -236 247 0
-236 -248 0
247 -248 0
236 -247 248 0
c gate 249 -41 126 0
-41 -249 0
126 -249 0
41 -126 249 0
c gate 250 -43 -126 0
-43 -250 0
-126 -250 0
43 126 250 0
c gate 251 125 -250 0
125 -251 0
-250 -251 0
-125 250 251 0
c gate 252 -249 251 0
-249 -252 0
251 -252 0
249 -251 252 0
c gate 253 -42 126 0
-42 -253 0
126 -253 0
42 -126 253 0
c gate 254 -44 -126 0
-44 -254 0
-126 -254 0
44 126 254 0
c gate 255 -125 -254 0
-125 -255 0
-254 -255 0
125 254 255 0
c gate 256 -253 255 0
-253 -256 0
255 -256 0
253 -255 256 0
c gate 257 -252 -256 0
-252 -257 0
-256 -257 0
252 256 257 0
c gate 258 128 257 0
128 -258 0
257 -258 0
-128 -257 258 0
c gate 259 -50 126 0
-50 -259 0
126 -259 0
50 -126 259 0
c gate 260 -52 -126 0
-52 -260 0
-126 -260 0
52 126 260 0
c gate 261 -125 -260 0
-125 -261 0
-260 -261 0
125 260 261 0
c gate 262 -259 261 0
-259 -262 0
261 -262 0
259 -261 262 0
c gate 263 -49 126 0
-49 -263 0
126 -263 0
49 -126 263 0
c gate 264 -51 -126 0
-51 -264 0
-126 -264 0
51 126 264 0
c gate 265 125 -264 0
125 -265 0
-264 -265 0
-125 264 265 0
c gate 266 -263 265 0
-263 -266 0
265 -266 0
263 -265 266 0
c gate 267 -128 -266 0
-128 -267 0
-266 -267 0
128 266 267 0
c gate 268 -262 267 0
-262 -268 0
267 -268 0
262 -267 268 0
c gate 269 127 -268 0
127 -269 0
-268 -269 0
-127 268 269 0
c gate 270 -258 269 0
-258 -270 0
269 -270 0
258 -269 270 0
c gate 271 -248 -270 0
-248 -271 0
-270 -271 0
248 270 271 0
c gate 272 -130 -271 0
-130 -272 0
-271 -272 0
130 271 272 0
c gate 273 12 -126 0
12 -273 0
-126 -273 0
-12 126 273 0
c gate 274 10 126 0
10 -274 0
126 -274 0
-10 -126 274 0
c gate 275 -125 -274 0
-125 -275 0
-274 -275 0
125 274 275 0
c gate 276 -273 275 0
-273 -276 0
275 -276 0
273 -275 276 0
c gate 277 11 -126 0
11 -277 0
-126 -277 0
-11 126 277 0
c gate 278 9 126 0
9 -278 0
126 -278 0
-9 -126 278 0
c gate 279 125 -278 0
125 -279 0
-278 -279 0
-125 278 279 0
c gate 280 -277 279 0
-277 -280 0
279 -280 0
277 -279 280 0
c gate 281 -276 -280 0
-276 -281 0
-280 -281 0
276 280 281 0
c gate 282 128 -281 0
128 -282 0
-281 -282 0
-128 281 282 0
c gate 283 19 -126 0
19 -283 0
-126 -283 0
-19 126 283 0
c gate 284 17 126 0
17 -284 0
126 -284 0
-17 -126 284 0
c gate 285 125 -284 0
125 -285 0
-284 -285 0
-125 284 285 0
c gate 286 -283 285 0
-283 -286 0
285 -286 0
283 -285 286 0
c gate 287 20 -126 0
20 -287 0
-126 -287 0
-20 126 287 0
c gate 288 18 126 0
18 -288 0
126 -288 0
-18 -126 288 0
c gate 289 -125 -288 0
-125 -289 0
-288 -289 0
125 288 289 0
c gate 290 -287 289 0
-287 -290 0
289 -290 0
287 -289 290 0
c gate 291 -286 -290 0
-286 -291 0
-290 -291 0
286 290 291 0
c gate 292 -128 -291 0
-128 -292 0
-291 -292 0
128 291 292 0
c gate 293 127 -292 0
127 -293 0
-292 -293 0
-127 292 293 0
c gate 294 -282 293 0
-282 -294 0
293 -294 0
282 -293 294 0
c gate 295 16 -126 0
16 -295 0
-126 -295 0
-16 126 295 0
c gate 296 14 126 0
14 -296 0
126 -296 0
-14 -126 296 0
c gate 297 -125 -296 0
-125 -297 0
-296 -297 0
125 296 297 0
c gate 298 -295 297 0
-295 -298 0
297 -298 0
295 -297 298 0
c gate 299 15 -126 0
15 -299 0
-126 -299 0
-15 126 299 0
c gate 300 13 126 0
13 -300 0
126 -300 0
-13 -126 300 0
c gate 301 125 -300 0
125 -301 0
-300 -301 0
-125 300 301 0
c gate 302 -299 301 0
-299 -302 0
301 -302 0
299 -301 302 0
c gate 303 -298 -302 0
-298 -303 0
-302 -303 0
298 302 303 0
c gate 304 128 -303 0
128 -304 0
-303 -304 0
-128 303 304 0
c gate 305 23 -126 0
23 -305 0
-126 -305 0
-23 126 305 0
c gate 306 21 126 0
21 -306 0
126 -306 0
-21 -126 306 0
c gate 307 125 -306 0
125 -307 0
-306 -307 0
-125 306 307 0
c gate 308 -305 307 0
-305 -308 0
307 -308 0
305 -307 308 0
c gate 309 24 -126 0
24 -309 0
-126 -309 0
-24 126 309 0
c gate 310 22 126 0
22 -310 0
126 -310 0
-22 -126 310 0
c gate 311 -125 -310 0
-125 -311 0
-310 -311 0
125 310 311 0
c gate 312 -309 311 0
-309 -312 0
311 -312 0
309 -311 312 0
c gate 313 -308 -312 0
-308 -313 0
-312 -313 0
308 312 313 0
c gate 314 -128 -313 0
-128 -314 0
-313 -314 0
128 313 314 0
c gate 315 -127 -314 0
-127 -315 0
-314 -315 0
127 314 315 0
c gate 316 -304 315 0
-304 -316 0
315 -316 0
304 -315 316 0
c gate 317 -294 -316 0
-294 -317 0
-316 -317 0
294 316 317 0
c gate 318 130 -317 0
130 -318 0
-317 -318 0
-130 317 318 0
c gate 319 -272 -318 0
-272 -319 0
-318 -319 0
272 318 319 0
c gate 320 129 -319 0
129 -320 0
-319 -320 0
-129 319 320 0
c gate 321 131 320 0
131 -321 0
320 -321 0
-131 -320 321 0
c gate 322 -72 126 0
-72 -322 0
126 -322 0
72 -126 322 0
c gate 323 -74 -126 0
-74 -323 0
-126 -323 0
74 126 323 0
c gate 324 -322 -323 0
-322 -324 0
-323 -324 0
322 323 324 0
c gate 325 125 324 0
125 -325 0
324 -325 0
-125 -324 325 0
c gate 326 -75 -126 0
-75 -326 0
-126 -326 0
75 126 326 0
c gate 327 -73 126 0
-73 -327 0
126 -327 0
73 -126 327 0
c gate 328 -326 -327 0
-326 -328 0
-327 -328 0
326 327 328 0
c gate 329 -125 328 0
-125 -329 0
328 -329 0
125 -328 329 0
c gate 330 -128 -329 0
-128 -330 0
-329 -330 0
128 329 330 0
c gate 331 -325 330 0
-325 -331 0
330 -331 0
325 -330 331 0
c gate 332 -64 126 0
-64 -332 0
126 -332 0
64 -126 332 0
c gate 333 -66 -126 0
-66 -333 0
-126 -333 0
66 126 333 0
c gate 334 -332 -333 0
-332 -334 0
-333 -334 0
332 333 334 0
c gate 335 125 334 0
125 -335 0
334 -335 0
-125 -334 335 0
c gate 336 -67 -126 0
-67 -336 0
-126 -336 0
67 126 336 0
c gate 337 -65 126 0
-65 -337 0
126 -337 0
65 -126 337 0
c gate 338 -336 -337 0
-336 -338 0
-337 -338 0
336 337 338 0
c gate 339 -125 338 0
-125 -339 0
338 -339 0
125 -338 339 0
c gate 340 128 -339 0
128 -340 0
-339 -340 0
-128 339 340 0
c gate 341 -335 340 0
-335 -341 0
340 -341 0
335 -340 341 0
c gate 342 -331 -341 0
-331 -342 0
-341 -342 0
331 341 342 0
c gate 343 127 -342 0
127 -343 0
-342 -343 0
-127 342 343 0
c gate 344 -68 126 0
-68 -344 0
126 -344 0
68 -126 344 0
c gate 345 -70 -126 0
-70 -345 0
-126 -345 0
70 126 345 0
c gate 346 -344 -345 0
-344 -346 0
-345 -346 0
344 345 346 0
c gate 347 125 346 0
125 -347 0
346 -347 0
-125 -346 347 0
c gate 348 -71 -126 0
-71 -348 0
-126 -348 0
71 126 348 0
c gate 349 -69 126 0
-69 -349 0
126 -349 0
69 -126 349 0
c gate 350 -348 -349 0
-348 -350 0
-349 -350 0
348 349 350 0
c gate 351 -125 350 0
-125 -351 0
350 -351 0
125 -350 351 0
c gate 352 128 -351 0
128 -352 0
-351 -352 0
-128 351 352 0
c gate 353 -347 352 0
-347 -353 0
352 -353 0
347 -352 353 0
c gate 354 -76 126 0
-76 -354 0
126 -354 0
76 -126 354 0
c gate 355 -78 -126 0
-78 -355 0
-126 -355 0
78 126 355 0
c gate 356 -354 -355 0
-354 -356 0
-355 -356 0
354 355 356 0
c gate 357 125 356 0
125 -357 0
356 -357 0
-125 -356 357 0
c gate 358 -79 -126 0
-79 -358 0
-126 -358 0
79 126 358 0
c gate 359 -77 126 0
-77 -359 0
126 -359 0
77 -126 359 0
c gate 360 -358 -359 0
-358 -360 0
-359 -360 0
358 359 360 0
c gate 361 -125 360 0
-125 -361 0
360 -361 0
125 -360 361 0
c gate 362 -128 -361 0
-128 -362 0
-361 -362 0
128 361 362 0
c gate 363 -357 362 0
-357 -363 0
362 -363 0
357 -362 363 0
c gate 364 -353 -363 0
-353 -364 0
-363 -364 0
353 363 364 0
c gate 365 -127 -364 0
-127 -365 0
-364 -365 0
127 364 365 0
c gate 366 130 -365 0
130 -366 0
-365 -366 0
-130 365 366 0
c gate 367 -343 366 0
-343 -367 0
366 -367 0
343 -366 367 0
c gate 368 -100 126 0
-100 -368 0
126 -368 0
100 -126 368 0
c gate 369 -102 -126 0
-102 -369 0
-126 -369 0
102 126 369 0
c gate 370 -368 -369 0
-368 -370 0
-369 -370 0
368 369 370 0
c gate 371 125 370 0
125 -371 0
370 -371 0
-125 -370 371 0
c gate 372 -103 -126 0
-103 -372 0
-126 -372 0
103 126 372 0
c gate 373 -101 126 0
-101 -373 0
126 -373 0
101 -126 373 0
c gate 374 -125 -373 0
-125 -374 0
-373 -374 0
125 373 374 0
c gate 375 -372 374 0
-372 -375 0
374 -375 0
372 -374 375 0
c gate 376 128 -375 0
128 -376 0
-375 -376 0
-128 375 376 0
c gate 377 -371 376 0
-371 -377 0
376 -377 0
371 -376 377 0
c gate 378 -109 126 0
-109 -378 0
126 -378 0
109 -126 378 0
c gate 379 -111 -126 0
-111 -379 0
-126 -379 0
111 126 379 0
c gate 380 -125 -379 0
-125 -380 0
-379 -380 0
125 379 380 0
c gate 381 -378 380 0
-378 -381 0
380 -381 0
378 -380 381 0
c gate 382 -108 126 0
-108 -382 0
126 -382 0
108 -126 382 0
c gate 383 -110 -126 0
-110 -383 0
-126 -383 0
110 126 383 0
c gate 384 125 -383 0
125 -384 0
-383 -384 0
-125 383 384 0
c gate 385 -382 384 0
-382 -385 0
384 -385 0
382 -384 385 0
c gate 386 -128 -385 0
-128 -386 0
-385 -386 0
128 385 386 0
c gate 387 -381 386 0
-381 -387 0
386 -387 0
381 -386 387 0
c gate 388 -127 -387 0
-127 -388 0
-387 -388 0
127 387 388 0
c gate 389 -377 388 0
-377 -389 0
388 -389 0
377 -388 389 0
c gate 390 -96 126 0
-96 -390 0
126 -390 0
96 -126 390 0
c gate 391 -98 -126 0
-98 -391 0
-126 -391 0
98 126 391 0
c gate 392 -390 -391 0
-390 -392 0
-391 -392 0
390 391 392 0
c gate 393 125 392 0
125 -393 0
392 -393 0
-125 -392 393 0
c gate 394 -99 -126 0
-99 -394 0
-126 -394 0
99 126 394 0
c gate 395 -97 126 0
-97 -395 0
126 -395 0
97 -126 395 0
c gate 396 -125 -395 0
-125 -396 0
-395 -396 0
125 395 396 0
c gate 397 -394 396 0
-394 -397 0
396 -397 0
394 -396 397 0
c gate 398 128 -397 0
128 -398 0
-397 -398 0
-128 397 398 0
c gate 399 -393 398 0
-393 -399 0
398 -399 0
393 -398 399 0
c gate 400 -105 126 0
-105 -400 0
126 -400 0
105 -126 400 0
c gate 401 -107 -126 0
-107 -401 0
-126 -401 0
107 126 401 0
c gate 402 -125 -401 0
-125 -402 0
-401 -402 0
125 401 402 0
c gate 403 -400 402 0
-400 -403 0
402 -403 0
400 -402 403 0
c gate 404 -104 126 0
-104 -404 0
126 -404 0
104 -126 404 0
c gate 405 -106 -126 0
-106 -405 0
-126 -405 0
106 126 405 0
c gate 406 125 -405 0
125 -406 0
-405 -406 0
-125 405 406 0
c gate 407 -404 406 0
-404 -407 0
406 -407 0
404 -406 407 0
c gate 408 -128 -407 0
-128 -408 0
-407 -408 0
128 407 408 0
c gate 409 -403 408 0
-403 -409 0
408 -409 0
403 -408 409 0
c gate 410 127 -409 0
127 -410 0
-409 -410 0
-127 409 410 0
c gate 411 -399 410 0
-399 -411 0
410 -411 0
399 -410 411 0
c gate 412 -389 -411 0
-389 -412 0
-411 -412 0
389 411 412 0
c gate 413 -130 -412 0
-130 -413 0
-412 -413 0
130 412 413 0
c gate 414 129 -413 0
129 -414 0
-413 -414 0
-129 413 414 0
c gate 415 -367 414 0
-367 -415 0
414 -415 0
367 -414 415 0
c gate 416 -131 415 0
-131 -416 0
415 -416 0
131 -415 416 0
c gate 417 125 148 0
125 -417 0
148 -417 0
-125 -148 417 0
c gate 418 -125 392 0
-125 -418 0
392 -418 0
125 -392 418 0
c gate 419 -128 -418 0
-128 -419 0
-418 -419 0
128 418 419 0
c gate 420 -417 419 0
-417 -420 0
419 -420 0
417 -419 420 0
c gate 421 125 138 0
125 -421 0
138 -421 0
-125 -138 421 0
c gate 422 -90 -126 0
-90 -422 0
-126 -422 0
90 126 422 0
c gate 423 -88 126 0
-88 -423 0
126 -423 0
88 -126 423 0
c gate 424 -125 -423 0
-125 -424 0
-423 -424 0
125 423 424 0
c gate 425 -422 424 0
-422 -425 0
424 -425 0
422 -424 425 0
c gate 426 128 -425 0
128 -426 0
-425 -426 0
-128 425 426 0
c gate 427 -421 426 0
-421 -427 0
426 -427 0
421 -426 427 0
c gate 428 -420 -427 0
-420 -428 0
-427 -428 0
420 427 428 0
c gate 429 127 -428 0
127 -429 0
-428 -429 0
-127 428 429 0
c gate 430 125 160 0
125 -430 0
160 -430 0
-125 -160 430 0
c gate 431 -94 -126 0
-94 -431 0
-126 -431 0
94 126 431 0
c gate 432 -92 126 0
-92 -432 0
126 -432 0
92 -126 432 0
c gate 433 -125 -432 0
-125 -433 0
-432 -433 0
125 432 433 0
c gate 434 -431 433 0
-431 -434 0
433 -434 0
431 -433 434 0
c gate 435 128 -434 0
128 -435 0
-434 -435 0
-128 434 435 0
c gate 436 -430 435 0
-430 -436 0
435 -436 0
430 -435 436 0
c gate 437 -99 126 0
-99 -437 0
126 -437 0
99 -126 437 0
c gate 438 -101 -126 0
-101 -438 0
-126 -438 0
101 126 438 0
c gate 439 125 -438 0
125 -439 0
-438 -439 0
-125 438 439 0
c gate 440 -437 439 0
-437 -440 0
439 -440 0
437 -439 440 0
c gate 441 -125 370 0
-125 -441 0
370 -441 0
125 -370 441 0
c gate 442 -128 -441 0
-128 -442 0
-441 -442 0
128 441 442 0
c gate 443 -440 442 0
-440 -443 0
442 -443 0
440 -442 443 0
c gate 444 -436 -443 0
-436 -444 0
-443 -444 0
436 443 444 0
c gate 445 -127 -444 0
-127 -445 0
-444 -445 0
127 444 445 0
c gate 446 130 -445 0
130 -446 0
-445 -446 0
-130 445 446 0
c gate 447 -429 446 0
-429 -447 0
446 -447 0
429 -446 447 0
c gate 448 125 184 0
125 -448 0
184 -448 0
-125 -184 448 0
c gate 449 -120 -126 0
-120 -449 0
-126 -449 0
120 126 449 0
c gate 450 -118 126 0
-118 -450 0
126 -450 0
118 -126 450 0
c gate 451 -125 -450 0
-125 -451 0
-450 -451 0
125 450 451 0
c gate 452 -449 451 0
-449 -452 0
451 -452 0
449 -451 452 0
c gate 453 128 -452 0
128 -453 0
-452 -453 0
-128 452 453 0
c gate 454 -448 453 0
-448 -454 0
453 -454 0
448 -453 454 0
c gate 455 125 194 0
125 -455 0
194 -455 0
-125 -194 455 0
c gate 456 -4 -126 0
-4 -456 0
-126 -456 0
4 126 456 0
c gate 457 -2 126 0
-2 -457 0
126 -457 0
2 -126 457 0
c gate 458 -125 -457 0
-125 -458 0
-457 -458 0
125 457 458 0
c gate 459 -456 458 0
-456 -459 0
458 -459 0
456 -458 459 0
c gate 460 -128 -459 0
-128 -460 0
-459 -460 0
128 459 460 0
c gate 461 -455 460 0
-455 -461 0
460 -461 0
455 -460 461 0
c gate 462 127 -461 0
127 -462 0
-461 -462 0
-127 461 462 0
c gate 463 -454 462 0
-454 -463 0
462 -463 0
454 -462 463 0
c gate 464 125 206 0
125 -464 0
206 -464 0
-125 -206 464 0
c gate 465 -124 -126 0
-124 -465 0
-126 -465 0
124 126 465 0
c gate 466 -122 126 0
-122 -466 0
126 -466 0
122 -126 466 0
c gate 467 -125 -466 0
-125 -467 0
-466 -467 0
125 466 467 0
c gate 468 -465 467 0
-465 -468 0
467 -468 0
465 -467 468 0
c gate 469 128 -468 0
128 -469 0
-468 -469 0
-128 468 469 0
c gate 470 -464 469 0
-464 -470 0
469 -470 0
464 -469 470 0
c gate 471 -6 126 0
-6 -471 0
126 -471 0
6 -126 471 0
c gate 472 -8 -126 0
-8 -472 0
-126 -472 0
8 126 472 0
c gate 473 -125 -472 0
-125 -473 0
-472 -473 0
125 472 473 0
c gate 474 -471 473 0
-471 -474 0
473 -474 0
471 -473 474 0
c gate 475 -5 126 0
-5 -475 0
126 -475 0
5 -126 475 0
c gate 476 -7 -126 0
-7 -476 0
-126 -476 0
7 126 476 0
c gate 477 125 -476 0
125 -477 0
-476 -477 0
-125 476 477 0
c gate 478 -475 477 0
-475 -478 0
477 -478 0
475 -477 478 0
c gate 479 -128 -478 0
-128 -479 0
-478 -479 0
128 478 479 0
c gate 480 -474 479 0
-474 -480 0
479 -480 0
474 -479 480 0
c gate 481 -127 -480 0
-127 -481 0
-480 -481 0
127 480 481 0
c gate 482 -470 481 0
-470 -482 0
481 -482 0
470 -481 482 0
c gate 483 -463 -482 0
-463 -483 0
-482 -483 0
463 482 483 0
c gate 484 -130 -483 0
-130 -484 0
-483 -484 0
130 483 484 0
c gate 485 129 -484 0
129 -485 0
-484 -485 0
-129 484 485 0
c gate 486 -447 485 0
-447 -486 0
485 -486 0
447 -485 486 0
c gate 487 131 486 0
131 -487 0
486 -487 0
-131 -486 487 0
c gate 488 -38 126 0
-38 -488 0
126 -488 0
38 -126 488 0
c gate 489 -40 -126 0
-40 -489 0
-126 -489 0
40 126 489 0
c gate 490 -125 -489 0
-125 -490 0
-489 -490 0
125 489 490 0
c gate 491 -488 490 0
-488 -491 0
490 -491 0
488 -490 491 0
c gate 492 -37 126 0
-37 -492 0
126 -492 0
37 -126 492 0
c gate 493 -39 -126 0
-39 -493 0
-126 -493 0
39 126 493 0
c gate 494 125 -493 0
125 -494 0
-493 -494 0
-125 493 494 0
c gate 495 -492 494 0
-492 -495 0
494 -495 0
492 -494 495 0
c gate 496 128 -495 0
128 -496 0
-495 -496 0
-128 495 496 0
c gate 497 -491 496 0
-491 -497 0
496 -497 0
491 -496 497 0
c gate 498 -128 235 0
-128 -498 0
235 -498 0
128 -235 498 0
c gate 499 -127 -498 0
-127 -499 0
-498 -499 0
127 498 499 0
c gate 500 -497 499 0
-497 -500 0
499 -500 0
497 -499 500 0
c gate 501 -34 126 0
-34 -501 0
126 -501 0
34 -126 501 0
c gate 502 -36 -126 0
-36 -502 0
-126 -502 0
36 126 502 0
c gate 503 -125 -502 0
-125 -503 0
-502 -503 0
125 502 503 0
c gate 504 -501 503 0
-501 -504 0
503 -504 0
501 -503 504 0
c gate 505 -33 126 0
-33 -505 0
126 -505 0
33 -126 505 0
c gate 506 -35 -126 0
-35 -506 0
-126 -506 0
35 126 506 0
c gate 507 125 -506 0
125 -507 0
-506 -507 0
-125 506 507 0
c gate 508 -505 507 0
-505 -508 0
507 -508 0
505 -507 508 0
c gate 509 128 -508 0
128 -509 0
-508 -509 0
-128 508 509 0
c gate 510 -504 509 0
-504 -510 0
509 -510 0
504 -509 510 0
c gate 511 -128 257 0
-128 -511 0
257 -511 0
128 -257 511 0
c gate 512 127 -511 0
127 -512 0
-511 -512 0
-127 511 512 0
c gate 513 -510 512 0
-510 -513 0
512 -513 0
510 -512 513 0
c gate 514 -500 -513 0
-500 -514 0
-513 -514 0
500 513 514 0
c gate 515 130 -514 0
130 -515 0
-514 -515 0
-130 514 515 0
c gate 516 125 338 0
125 -516 0
338 -516 0
-125 -338 516 0
c gate 517 -66 126 0
-66 -517 0
126 -517 0
66 -126 517 0
c gate 518 -68 -126 0
-68 -518 0
-126 -518 0
68 126 518 0
c gate 519 -125 -518 0
-125 -519 0
-518 -519 0
125 518 519 0
c gate 520 -517 519 0
-517 -520 0
519 -520 0
517 -519 520 0
c gate 521 128 -520 0
128 -521 0
-520 -521 0
-128 520 521 0
c gate 522 -516 521 0
-516 -522 0
521 -522 0
516 -521 522 0
c gate 523 125 328 0
125 -523 0
328 -523 0
-125 -328 523 0
c gate 524 -74 126 0
-74 -524 0
126 -524 0
74 -126 524 0
c gate 525 -76 -126 0
-76 -525 0
-126 -525 0
76 126 525 0
c gate 526 -125 -525 0
-125 -526 0
-525 -526 0
125 525 526 0
c gate 527 -524 526 0
-524 -527 0
526 -527 0
524 -526 527 0
c gate 528 -128 -527 0
-128 -528 0
-527 -528 0
128 527 528 0
c gate 529 -523 528 0
-523 -529 0
528 -529 0
523 -528 529 0
c gate 530 -522 -529 0
-522 -530 0
-529 -530 0
522 529 530 0
c gate 531 127 -530 0
127 -531 0
-530 -531 0
-127 530 531 0
c gate 532 125 360 0
125 -532 0
360 -532 0
-125 -360 532 0
c gate 533 -78 126 0
-78 -533 0
126 -533 0
78 -126 533 0
c gate 534 -80 -126 0
-80 -534 0
-126 -534 0
80 126 534 0
c gate 535 -125 -534 0
-125 -535 0
-534 -535 0
125 534 535 0
c gate 536 -533 535 0
-533 -536 0
535 -536 0
533 -535 536 0
c gate 537 -128 -536 0
-128 -537 0
-536 -537 0
128 536 537 0
c gate 538 -532 537 0
-532 -538 0
537 -538 0
532 -537 538 0
c gate 539 125 350 0
125 -539 0
350 -539 0
-125 -350 539 0
c gate 540 -70 126 0
-70 -540 0
126 -540 0
70 -126 540 0
c gate 541 -72 -126 0
-72 -541 0
-126 -541 0
72 126 541 0
c gate 542 -125 -541 0
-125 -542 0
-541 -542 0
125 541 542 0
c gate 543 -540 542 0
-540 -543 0
542 -543 0
540 -542 543 0
c gate 544 128 -543 0
128 -544 0
-543 -544 0
-128 543 544 0
c gate 545 -539 544 0
-539 -545 0
544 -545 0
539 -544 545 0
c gate 546 -538 -545 0
-538 -546 0
-545 -546 0
538 545 546 0
c gate 547 -127 -546 0
-127 -547 0
-546 -547 0
127 546 547 0
c gate 548 -130 -547 0
-130 -548 0
-547 -548 0
130 547 548 0
c gate 549 -531 548 0
-531 -549 0
548 -549 0
531 -548 549 0
c gate 550 -515 -549 0
-515 -550 0
-549 -550 0
515 549 550 0
c gate 551 129 -550 0
129 -551 0
-550 -551 0
-129 550 551 0
c gate 552 131 551 0
131 -552 0
551 -552 0
-131 -551 552 0
c gate 553 -67 126 0
-67 -553 0
126 -553 0
67 -126 553 0
c gate 554 -69 -126 0
-69 -554 0
-126 -554 0
69 126 554 0
c gate 555 125 -554 0
125 -555 0
-554 -555 0
-125 554 555 0
c gate 556 -553 555 0
-553 -556 0
555 -556 0
553 -555 556 0
c gate 557 -125 346 0
-125 -557 0
346 -557 0
125 -346 557 0
c gate 558 128 -557 0
128 -558 0
-557 -558 0
-128 557 558 0
c gate 559 -556 558 0
-556 -559 0
558 -559 0
556 -558 559 0
c gate 560 -75 126 0
-75 -560 0
126 -560 0
75 -126 560 0
c gate 561 -77 -126 0
-77 -561 0
-126 -561 0
77 126 561 0
c gate 562 125 -561 0
125 -562 0
-561 -562 0
-125 561 562 0
c gate 563 -560 562 0
-560 -563 0
562 -563 0
560 -562 563 0
c gate 564 -125 356 0
-125 -564 0
356 -564 0
125 -356 564 0
c gate 565 -128 -564 0
-128 -565 0
-564 -565 0
128 564 565 0
c gate 566 -563 565 0
-563 -566 0
565 -566 0
563 -565 566 0
c gate 567 127 -566 0
127 -567 0
-566 -567 0
-127 566 567 0
c gate 568 -559 567 0
-559 -568 0
567 -568 0
559 -567 568 0
c gate 569 -71 126 0
-71 -569 0
126 -569 0
71 -126 569 0
c gate 570 -73 -126 0
-73 -570 0
-126 -570 0
73 126 570 0
c gate 571 125 -570 0
125 -571 0
-570 -571 0
-125 570 571 0
c gate 572 -569 571 0
-569 -572 0
571 -572 0
569 -571 572 0
c gate 573 -125 324 0
-125 -573 0
324 -573 0
125 -324 573 0
c gate 574 128 -573 0
128 -574 0
-573 -574 0
-128 573 574 0
c gate 575 -572 574 0
-572 -575 0
574 -575 0
572 -574 575 0
c gate 576 -80 126 0
-80 -576 0
126 -576 0
80 -126 576 0
c gate 577 -82 -126 0
-82 -577 0
-126 -577 0
82 126 577 0
c gate 578 -125 -577 0
-125 -578 0
-577 -578 0
125 577 578 0
c gate 579 -576 578 0
-576 -579 0
578 -579 0
576 -578 579 0
c gate 580 -79 126 0
-79 -580 0
126 -580 0
79 -126 580 0
c gate 581 -81 -126 0
-81 -581 0
-126 -581 0
81 126 581 0
c gate 582 125 -581 0
125 -582 0
-581 -582 0
-125 581 582 0
c gate 583 -580 582 0
-580 -583 0
582 -583 0
580 -582 583 0
c gate 584 -128 -583 0
-128 -584 0
-583 -584 0
128 583 584 0
c gate 585 -579 584 0
-579 -585 0
584 -585 0
579 -584 585 0
c gate 586 -127 -585 0
-127 -586 0
-585 -586 0
127 585 586 0
c gate 587 -575 586 0
-575 -587 0
586 -587 0
575 -586 587 0
c gate 588 -130 -587 0
-130 -588 0
-587 -588 0
130 587 588 0
c gate 589 -568 588 0
-568 -589 0
588 -589 0
568 -588 589 0
c gate 590 49 -126 0
49 -590 0
-126 -590 0
-49 126 590 0
c gate 591 47 126 0
47 -591 0
126 -591 0
-47 -126 591 0
c gate 592 125 -591 0
125 -592 0
-591 -592 0
-125 591 592 0
c gate 593 -590 592 0
-590 -593 0
592 -593 0
590 -592 593 0
c gate 594 48 126 0
48 -594 0
126 -594 0
-48 -126 594 0
c gate 595 50 -126 0
50 -595 0
-126 -595 0
-50 126 595 0
c gate 596 -125 -595 0
-125 -596 0
-595 -596 0
125 595 596 0
c gate 597 -594 596 0
-594 -597 0
596 -597 0
594 -596 597 0
c gate 598 -128 -597 0
-128 -598 0
-597 -598 0
128 597 598 0
c gate 599 -593 598 0
-593 -599 0
598 -599 0
593 -598 599 0
c gate 600 42 -126 0
42 -600 0
-126 -600 0
-42 126 600 0
c gate 601 40 126 0
40 -601 0
126 -601 0
-40 -126 601 0
c gate 602 -125 -601 0
-125 -602 0
-601 -602 0
125 601 602 0
c gate 603 -600 602 0
-600 -603 0
602 -603 0
600 -602 603 0
c gate 604 39 126 0
39 -604 0
126 -604 0
-39 -126 604 0
c gate 605 41 -126 0
41 -605 0
-126 -605 0
-41 126 605 0
c gate 606 125 -605 0
125 -606 0
-605 -606 0
-125 605 606 0
c gate 607 -604 606 0
-604 -607 0
606 -607 0
604 -606 607 0
c gate 608 128 -607 0
128 -608 0
-607 -608 0
-128 607 608 0
c gate 609 -603 608 0
-603 -609 0
608 -609 0
603 -608 609 0
c gate 610 -127 -609 0
-127 -610 0
-609 -610 0
127 609 610 0
c gate 611 -599 610 0
-599 -611 0
610 -611 0
599 -610 611 0
c gate 612 46 -126 0
46 -612 0
-126 -612 0
-46 126 612 0
c gate 613 44 126 0
44 -613 0
126 -613 0
-44 -126 613 0
c gate 614 -125 -613 0
-125 -614 0
-613 -614 0
125 613 614 0
c gate 615 -612 614 0
-612 -615 0
614 -615 0
612 -614 615 0
c gate 616 45 -126 0
45 -616 0
-126 -616 0
-45 126 616 0
c gate 617 43 126 0
43 -617 0
126 -617 0
-43 -126 617 0
c gate 618 125 -617 0
125 -618 0
-617 -618 0
-125 617 618 0
c gate 619 -616 618 0
-616 -619 0
618 -619 0
616 -618 619 0
c gate 620 -128 -619 0
-128 -620 0
-619 -620 0
128 619 620 0
c gate 621 -615 620 0
-615 -621 0
620 -621 0
615 -620 621 0
c gate 622 35 126 0
35 -622 0
126 -622 0
-35 -126 622 0
c gate 623 37 -126 0
37 -623 0
-126 -623 0
-37 126 623 0
c gate 624 125 -623 0
125 -624 0
-623 -624 0
-125 623 624 0
c gate 625 -622 624 0
-622 -625 0
624 -625 0
622 -624 625 0
c gate 626 36 126 0
36 -626 0
126 -626 0
-36 -126 626 0
c gate 627 38 -126 0
38 -627 0
-126 -627 0
-38 126 627 0
c gate 628 -125 -627 0
-125 -628 0
-627 -628 0
125 627 628 0
c gate 629 -626 628 0
-626 -629 0
628 -629 0
626 -628 629 0
c gate 630 128 -629 0
128 -630 0
-629 -630 0
-128 629 630 0
c gate 631 -625 630 0
-625 -631 0
630 -631 0
625 -630 631 0
c gate 632 127 -631 0
127 -632 0
-631 -632 0
-127 631 632 0
c gate 633 -621 632 0
-621 -633 0
632 -633 0
621 -632 633 0
c gate 634 -611 -633 0
-611 -634 0
-633 -634 0
611 633 634 0
c gate 635 130 -634 0
130 -635 0
-634 -635 0
-130 634 635 0
c gate 636 -129 -635 0
-129 -636 0
-635 -636 0
129 635 636 0
c gate 637 -589 636 0
-589 -637 0
636 -637 0
589 -636 637 0
c gate 638 131 -637 0
131 -638 0
-637 -638 0
-131 637 638 0
c gate 639 33 -126 0
33 -639 0
-126 -639 0
-33 126 639 0
c gate 640 31 126 0
31 -640 0
126 -640 0
-31 -126 640 0
c gate 641 125 -640 0
125 -641 0
-640 -641 0
-125 640 641 0
c gate 642 -639 641 0
-639 -642 0
641 -642 0
639 -641 642 0
c gate 643 32 126 0
32 -643 0
126 -643 0
-32 -126 643 0
c gate 644 34 -126 0
34 -644 0
-126 -644 0
-34 126 644 0
c gate 645 -125 -644 0
-125 -645 0
-644 -645 0
125 644 645 0
c gate 646 -643 645 0
-643 -646 0
645 -646 0
643 -645 646 0
c gate 647 -128 -646 0
-128 -647 0
-646 -647 0
128 646 647 0
c gate 648 -642 647 0
-642 -648 0
647 -648 0
642 -647 648 0
c gate 649 26 -126 0
26 -649 0
-126 -649 0
-26 126 649 0
c gate 650 24 126 0
24 -650 0
126 -650 0
-24 -126 650 0
c gate 651 -125 -650 0
-125 -651 0
-650 -651 0
125 650 651 0
c gate 652 -649 651 0
-649 -652 0
651 -652 0
649 -651 652 0
c gate 653 23 126 0
23 -653 0
126 -653 0
-23 -126 653 0
c gate 654 25 -126 0
25 -654 0
-126 -654 0
-25 126 654 0
c gate 655 125 -654 0
125 -655 0
-654 -655 0
-125 654 655 0
c gate 656 -653 655 0
-653 -656 0
655 -656 0
653 -655 656 0
c gate 657 128 -656 0
128 -657 0
-656 -657 0
-128 656 657 0
c gate 658 -652 657 0
-652 -658 0
657 -658 0
652 -657 658 0
c gate 659 -127 -658 0
-127 -659 0
-658 -659 0
127 658 659 0
c gate 660 -648 659 0
-648 -660 0
659 -660 0
648 -659 660 0
c gate 661 29 -126 0
29 -661 0
-126 -661 0
-29 126 661 0
c gate 662 27 126 0
27 -662 0
126 -662 0
-27 -126 662 0
c gate 663 125 -662 0
125 -663 0
-662 -663 0
-125 662 663 0
c gate 664 -661 663 0
-661 -664 0
663 -664 0
661 -663 664 0
c gate 665 28 126 0
28 -665 0
126 -665 0
-28 -126 665 0
c gate 666 30 -126 0
30 -666 0
-126 -666 0
-30 126 666 0
c gate 667 -125 -666 0
-125 -667 0
-666 -667 0
125 666 667 0
c gate 668 -665 667 0
-665 -668 0
667 -668 0
665 -667 668 0
c gate 669 -128 -668 0
-128 -669 0
-668 -669 0
128 668 669 0
c gate 670 -664 669 0
-664 -670 0
669 -670 0
664 -669 670 0
c gate 671 22 -126 0
22 -671 0
-126 -671 0
-22 126 671 0
c gate 672 20 126 0
20 -672 0
126 -672 0
-20 -126 672 0
c gate 673 -125 -672 0
-125 -673 0
-672 -673 0
125 672 673 0
c gate 674 -671 673 0
-671 -674 0
673 -674 0
671 -673 674 0
c gate 675 19 126 0
19 -675 0
126 -675 0
-19 -126 675 0
c gate 676 21 -126 0
21 -676 0
-126 -676 0
-21 126 676 0
c gate 677 125 -676 0
125 -677 0
-676 -677 0
-125 676 677 0
c gate 678 -675 677 0
-675 -678 0
677 -678 0
675 -677 678 0
c gate 679 128 -678 0
128 -679 0
-678 -679 0
-128 678 679 0
c gate 680 -674 679 0
-674 -680 0
679 -680 0
674 -679 680 0
c gate 681 127 -680 0
127 -681 0
-680 -681 0
-127 680 681 0
c gate 682 -670 681 0
-670 -682 0
681 -682 0
670 -681 682 0
c gate 683 -660 -682 0
-660 -683 0
-682 -683 0
660 682 683 0
c gate 684 130 -683 0
130 -684 0
-683 -684 0
-130 683 684 0
c gate 685 61 -126 0
61 -685 0
-126 -685 0
-61 126 685 0
c gate 686 59 126 0
59 -686 0
126 -686 0
-59 -126 686 0
c gate 687 125 -686 0
125 -687 0
-686 -687 0
-125 686 687 0
c gate 688 -685 687 0
-685 -688 0
687 -688 0
685 -687 688 0
c gate 689 60 126 0
60 -689 0
126 -689 0
-60 -126 689 0
c gate 690 62 -126 0
62 -690 0
-126 -690 0
-62 126 690 0
c gate 691 -125 -690 0
-125 -691 0
-690 -691 0
125 690 691 0
c gate 692 -689 691 0
-689 -692 0
691 -692 0
689 -691 692 0
c gate 693 -128 -692 0
-128 -693 0
-692 -693 0
128 692 693 0
c gate 694 -688 693 0
-688 -694 0
693 -694 0
688 -693 694 0
c gate 695 54 -126 0
54 -695 0
-126 -695 0
-54 126 695 0
c gate 696 52 126 0
52 -696 0
126 -696 0
-52 -126 696 0
c gate 697 -125 -696 0
-125 -697 0
-696 -697 0
125 696 697 0
c gate 698 -695 697 0
-695 -698 0
697 -698 0
695 -697 698 0
c gate 699 51 126 0
51 -699 0
126 -699 0
-51 -126 699 0
c gate 700 53 -126 0
53 -700 0
-126 -700 0
-53 126 700 0
c gate 701 125 -700 0
125 -701 0
-700 -701 0
-125 700 701 0
c gate 702 -699 701 0
-699 -702 0
701 -702 0
699 -701 702 0
c gate 703 128 -702 0
128 -703 0
-702 -703 0
-128 702 703 0
c gate 704 -698 703 0
-698 -704 0
703 -704 0
698 -703 704 0
c gate 705 127 -704 0
127 -705 0
-704 -705 0
-127 704 705 0
c gate 706 -694 705 0
-694 -706 0
705 -706 0
694 -705 706 0
c gate 707 -63 126 0
-63 -707 0
126 -707 0
63 -126 707 0
c gate 708 -65 -126 0
-65 -708 0
-126 -708 0
65 126 708 0
c gate 709 -707 -708 0
-707 -709 0
-708 -709 0
707 708 709 0
c gate 710 125 -709 0
125 -710 0
-709 -710 0
-125 709 710 0
c gate 711 -125 -334 0
-125 -711 0
-334 -711 0
125 334 711 0
c gate 712 -128 -711 0
-128 -712 0
-711 -712 0
128 711 712 0
c gate 713 -710 712 0
-710 -713 0
712 -713 0
710 -712 713 0
c gate 714 -56 126 0
-56 -714 0
126 -714 0
56 -126 714 0
c gate 715 -58 -126 0
-58 -715 0
-126 -715 0
58 126 715 0
c gate 716 -125 -715 0
-125 -716 0
-715 -716 0
125 715 716 0
c gate 717 -714 716 0
-714 -717 0
716 -717 0
714 -716 717 0
c gate 718 -57 -126 0
-57 -718 0
-126 -718 0
57 126 718 0
c gate 719 -55 126 0
-55 -719 0
126 -719 0
55 -126 719 0
c gate 720 125 -719 0
125 -720 0
-719 -720 0
-125 719 720 0
c gate 721 -718 720 0
-718 -721 0
720 -721 0
718 -720 721 0
c gate 722 -717 -721 0
-717 -722 0
-721 -722 0
717 721 722 0
c gate 723 128 -722 0
128 -723 0
-722 -723 0
-128 722 723 0
c gate 724 -127 -723 0
-127 -724 0
-723 -724 0
127 723 724 0
c gate 725 -713 724 0
-713 -725 0
724 -725 0
713 -724 725 0
c gate 726 -706 -725 0
-706 -726 0
-725 -726 0
706 725 726 0
c gate 727 -130 -726 0
-130 -727 0
-726 -727 0
130 726 727 0
c gate 728 129 -727 0
129 -728 0
-727 -728 0
-129 727 728 0
c gate 729 -684 728 0
-684 -729 0
728 -729 0
684 -728 729 0
c gate 730 638 729 0
638 -730 0
729 -730 0
-638 -729 730 0
c gate 731 -321 -730 0
-321 -731 0
-730 -731 0
321 730 731 0
c gate 732 -552 731 0
-552 -732 0
731 -732 0
552 -731 732 0
c gate 733 -131 320 0
-131 -733 0
320 -733 0
131 -320 733 0
c gate 734 732 -733 0
732 -734 0
-733 -734 0
-732 733 734 0
c gate 735 131 225 0
131 -735 0
225 -735 0
-131 -225 735 0
c gate 736 131 415 0
131 -736 0
415 -736 0
-131 -415 736 0
c gate 737 -735 -736 0
-735 -737 0
-736 -737 0
735 736 737 0
c gate 738 -734 737 0
-734 -738 0
737 -738 0
734 -737 738 0
c gate 739 -487 738 0
-487 -739 0
738 -739 0
487 -738 739 0
c gate 740 -638 729 0
-638 -740 0
729 -740 0
638 -729 740 0
c gate 741 -131 551 0
-131 -741 0
551 -741 0
131 -551 741 0
c gate 742 -740 -741 0
-740 -742 0
-741 -742 0
740 741 742 0
c gate 743 -739 742 0
-739 -743 0
742 -743 0
739 -742 743 0
c gate 744 416 -743 0
416 -744 0
-743 -744 0
-416 743 744 0
c gate 745 -321 -744 0
-321 -745 0
-744 -745 0
321 744 745 0
c gate 746 -732 743 0
-732 -746 0
743 -746 0
732 -743 746 0
c gate 747 -131 486 0
-131 -747 0
486 -747 0
131 -486 747 0
c gate 748 -416 -747 0
-416 -748 0
-747 -748 0
416 747 748 0
c gate 749 -226 748 0
-226 -749 0
748 -749 0
226 -748 749 0
c gate 750 -743 -749 0
-743 -750 0
-749 -750 0
743 749 750 0
c gate 751 -746 -750 0
-746 -751 0
-750 -751 0
746 750 751 0
c gate 752 -745 -751 0
-745 -752 0
-751 -752 0
745 751 752 0
c gate 753 -226 -752 0
-226 -753 0
-752 -753 0
226 752 753 0
c gate 754 226 752 0
226 -754 0
752 -754 0
-226 -752 754 0
c gate 755 -753 -754 0
-753 -755 0
-754 -755 0
753 754 755 0
c PO
755 0
